(set-info :smt-lib-version 2.6)
(set-logic QF_S)
(set-info :source |
Generated by: Murphy Berzish, Mitja Kulczynski, Federico Mora, Florin Manea, Joel Day, Dirk Nowotka, Vijay Ganesh, Zhengyang Lu
Generated on: 2020-10-01
Description: Translated from a collection of real-world regex queries, AutomataArk, collected by Loris D’Antoni and Fang Wang: https://github.com/lorisdanto/automatark
Application: Evaluate solvers on real-world regex queries
Target solver: Z3str3RE, CVC4, OSTRICH, Z3seq, Z3str3, Z3-Trau
Publications: Berzish, M., Kulczynski, M., Mora, F., Manea, F., Day, J. D., Nowotka, D., & Ganesh, V. (2021, July). An SMT solver for regular expressions and linear arithmetic over string length. In CAV 2021.
|)
(set-info :license "https://creativecommons.org/licenses/by/4.0/")
(set-info :category "industrial")
(set-info :status unsat)

(declare-const X String)
(assert (str.in_re X (re.++ (re.range "A" "Z") (str.to_re "\u{a}"))))
(assert (not (str.in_re X (re.++ (str.to_re "\u{a}") ((_ re.loop 0 3) (re.range "A" "Z")) ((_ re.loop 9 9) (re.range "0" "9")) (re.union ((_ re.loop 0 0) (re.range "0" "9")) ((_ re.loop 1 1) (re.range "A" "Z")))))))
(assert (str.in_re X (re.++ (re.* (re.opt (re.range "0" "9"))) (re.opt (str.to_re ".")) (re.opt (re.union ((_ re.loop 1 1) (re.range "0" "9")) ((_ re.loop 2 2) (re.range "0" "9")))) (str.to_re "\u{a}"))))
(assert (not (str.in_re X (re.++ (str.to_re "/") (re.union (str.to_re "\u{17}\u{0}") (str.to_re "\u{0}\u{5c}")) (str.to_re "\u{0}e\u{0}l\u{0}s\u{0}e\u{0}x\u{0}t\u{0}.\u{0}d\u{0}l\u{0}l\u{0}\u{0}\u{0}/i\u{a}")))))
(check-sat)

(exit)
